(set-logic QF_BV)
(declare-fun _substvar_199_ () (_ BitVec 8))
(declare-fun _substvar_218_ () (_ BitVec 32))
(declare-fun _substvar_202_ () (_ BitVec 16))
(assert (let ( (?v_9 ((_ zero_extend 24) _substvar_199_)) (?v_7 ((_ zero_extend 16) _substvar_202_))) (let ((?v_11 (bvadd ?v_7 (bvsub (_ bv4294967295 32) ?v_9)))) (let ((?v_13 (bvadd ?v_11 (_ bv0 32)))) (let ((?v_17 (bvadd ?v_13 (_ bv0 32)))) (let ((?v_14 (bvadd ?v_17 (bvsub (_ bv4294967295 32) (_ bv0 32))))) (and true true true true (bvult ?v_14 (bvadd _substvar_218_ (_ bv1 32))) true true true true true true true true true true true true true true true true true true true (= (bvadd ?v_14 (bvsub (_ bv4294967295 32) _substvar_218_)) (_ bv0 32)) true true true)))))))
(check-sat)
(exit)
